multiobj/instances/uniform/Ter.5.3.0.80.3.in
5 3
0 1 862 105 5 
1 0 100 377 177 
862 100 0 804 728 
105 377 804 0 463 
5 177 728 463 0 
0 590 765 295 813 
590 0 628 964 277 
765 628 0 881 42 
295 964 881 0 188 
813 277 42 188 0 
0 526 952 184 527 
526 0 363 967 247 
952 363 0 878 45 
184 967 878 0 314 
527 247 45 314 0 
0 641 882 186 764 
641 0 567 937 226 
882 567 0 960 25 
186 937 960 0 385 
764 226 25 385 0 
