multiobj/solutions/Ter.5.3.0.80.3.out
2 3
1 4 0 3 2 
2457398 2457820 2587890 
1 3 4 0 2 
2502318 2391400 2743674 
